11734
1 1 0 0 0 1 1 1 1 1 
5 9 0 6 5 5 7 7 7 6 0 6 8 6 6 6 6 5 6 6 7 0 1 1 7 5 0 5 6 5 9 0 6 0 7 7 6 7 1 6 1 5 9 8 8 0 8 6 9 0 0 5 6 0 5 8 6 1 7 8 6 5 6 9 5 1 7 6 5 6 8 0 5 1 0 7 9 7 5 5 7 9 7 1 6 7 9 6 7 9 
